(set-logic QF_NRA_ODE)
(declare-fun F () Real)
(declare-fun F_0_0 () Real)
(declare-fun F_0_t () Real)
(declare-fun M () Real)
(declare-fun M_0_0 () Real)
(declare-fun M_0_t () Real)
(declare-fun K () Real)
(declare-fun K_0_0 () Real)
(declare-fun K_0_t () Real)
(declare-fun b () Real)
(declare-fun b_0_0 () Real)
(declare-fun b_0_t () Real)
(declare-fun kappa () Real)
(declare-fun kappa_0_0 () Real)
(declare-fun kappa_0_t () Real)
(declare-fun t () Real)
(declare-fun t_0_0 () Real)
(declare-fun t_0_t () Real)
(declare-fun time_0 () Real)
(define-ode flow_1 ((= d/dt[b] 0.0)(= d/dt[kappa] 0.0)(= d/dt[t] 1.0)(= d/dt[F] (* F (- (- 0.0 (/ 0.013 (+ 1.0 K))) (* (/ 1.0 7777.8) (+ (/ (+ 772.3 (* kappa 30.4)) (+ F M)) kappa)))))(= d/dt[M] (* (/ (- 0.0 M) 1400.0) (+ (/ (+ 772.3 (* kappa 30.4)) (+ F M)) kappa)))(= d/dt[K] (- (/ (* 0.9 (* 0.013 F)) (+ 1.0 K)) b))))
(assert (>= F_0_0 16.3436))
(assert (<= F_0_0 27.8854))
(assert (>= F_0_t 16.3436))
(assert (<= F_0_t 27.8854))
(assert (>= M_0_0 16.8409))
(assert (<= M_0_0 52.5197))
(assert (>= M_0_t 16.8409))
(assert (<= M_0_t 52.5197))
(assert (>= K_0_0 -0.709055))
(assert (<= K_0_0 2.20716))
(assert (>= K_0_t -0.709055))
(assert (<= K_0_t 2.20716))
(assert (>= b_0_0 0.07))
(assert (<= b_0_0 0.070625))
(assert (>= b_0_t 0.07))
(assert (<= b_0_t 0.070625))
(assert (>= kappa_0_0 10))
(assert (<= kappa_0_0 10.1))
(assert (>= kappa_0_t 10))
(assert (<= kappa_0_t 10.1))
(assert (>= time_0 0))
(assert (<= time_0 25))
(assert (>= t_0_0 0))
(assert (<= t_0_0 25))
(assert (>= t_0_t 0))
(assert (<= t_0_t 25))
(assert 
(and 
(= [b_0_t kappa_0_t t_0_t F_0_t M_0_t K_0_t ] (integral 0. time_0 [b_0_0 kappa_0_0 t_0_0 F_0_0 M_0_0 K_0_0 ] flow_1))
(= b_0_0 b_0_t)
(= kappa_0_0 kappa_0_t)
(= t_0_0 0)
(>= F_0_0 25)
(<= F_0_0 25)
(>= M_0_0 43.6)
(<= M_0_0 43.6)
(>= K_0_0 0.02)
(<= K_0_0 0.02)
(= t_0_t 25)
(or
(< F_0_t 19.1291)
(> F_0_t 19.3291)
(< M_0_t 25.6606)
(> M_0_t 25.8606)
(< K_0_t 1.37811)
(> K_0_t 1.57811)
)
)
)
(check-sat)
(exit)
